c Maximum weighted clique instances generated from exactcolors.
c cutoff: 59652323.
c A clique of value > scalef (59652323) defines an improving stable sets for coloring.
p edge 36 340
e 1 9
e 1 10
e 1 11
e 1 12
e 1 14
e 1 16
e 1 17
e 1 18
e 1 20
e 1 21
e 1 23
e 1 24
e 1 26
e 1 27
e 1 28
e 1 30
e 1 32
e 1 33
e 1 34
e 1 35
e 2 10
e 2 11
e 2 12
e 2 13
e 2 15
e 2 17
e 2 18
e 2 19
e 2 21
e 2 22
e 2 24
e 2 25
e 2 27
e 2 28
e 2 29
e 2 31
e 2 33
e 2 34
e 2 35
e 2 36
e 3 7
e 3 11
e 3 12
e 3 14
e 3 16
e 3 18
e 3 19
e 3 20
e 3 22
e 3 23
e 3 25
e 3 26
e 3 28
e 3 29
e 3 30
e 3 31
e 3 32
e 3 34
e 3 35
e 3 36
e 4 7
e 4 8
e 4 12
e 4 13
e 4 15
e 4 17
e 4 20
e 4 21
e 4 23
e 4 24
e 4 25
e 4 26
e 4 27
e 4 29
e 4 30
e 4 31
e 4 32
e 4 33
e 4 35
e 4 36
e 5 7
e 5 8
e 5 9
e 5 13
e 5 14
e 5 16
e 5 18
e 5 19
e 5 21
e 5 22
e 5 24
e 5 26
e 5 27
e 5 28
e 5 30
e 5 31
e 5 32
e 5 33
e 5 34
e 5 36
e 6 7
e 6 8
e 6 9
e 6 10
e 6 13
e 6 14
e 6 15
e 6 17
e 6 19
e 6 20
e 6 22
e 6 23
e 6 25
e 6 27
e 6 28
e 6 29
e 6 32
e 6 33
e 6 34
e 6 35
e 7 15
e 7 16
e 7 17
e 7 18
e 7 20
e 7 22
e 7 23
e 7 24
e 7 26
e 7 27
e 7 29
e 7 30
e 7 32
e 7 33
e 7 34
e 7 36
e 8 16
e 8 17
e 8 18
e 8 19
e 8 21
e 8 23
e 8 24
e 8 25
e 8 27
e 8 28
e 8 30
e 8 31
e 8 33
e 8 34
e 8 35
e 9 13
e 9 17
e 9 18
e 9 20
e 9 22
e 9 24
e 9 25
e 9 26
e 9 28
e 9 29
e 9 31
e 9 32
e 9 34
e 9 35
e 9 36
e 10 13
e 10 14
e 10 18
e 10 19
e 10 21
e 10 23
e 10 26
e 10 27
e 10 29
e 10 30
e 10 31
e 10 32
e 10 33
e 10 35
e 10 36
e 11 13
e 11 14
e 11 15
e 11 19
e 11 20
e 11 22
e 11 24
e 11 25
e 11 27
e 11 28
e 11 30
e 11 32
e 11 33
e 11 34
e 11 36
e 12 13
e 12 14
e 12 15
e 12 16
e 12 19
e 12 20
e 12 21
e 12 23
e 12 25
e 12 26
e 12 28
e 12 29
e 12 31
e 12 33
e 12 34
e 12 35
e 13 21
e 13 22
e 13 23
e 13 24
e 13 26
e 13 28
e 13 29
e 13 30
e 13 32
e 13 33
e 13 35
e 13 36
e 14 22
e 14 23
e 14 24
e 14 25
e 14 27
e 14 29
e 14 30
e 14 31
e 14 33
e 14 34
e 14 36
e 15 19
e 15 23
e 15 24
e 15 26
e 15 28
e 15 30
e 15 31
e 15 32
e 15 34
e 15 35
e 16 19
e 16 20
e 16 24
e 16 25
e 16 27
e 16 29
e 16 32
e 16 33
e 16 35
e 16 36
e 17 19
e 17 20
e 17 21
e 17 25
e 17 26
e 17 28
e 17 30
e 17 31
e 17 33
e 17 34
e 17 36
e 18 19
e 18 20
e 18 21
e 18 22
e 18 25
e 18 26
e 18 27
e 18 29
e 18 31
e 18 32
e 18 34
e 18 35
e 19 27
e 19 28
e 19 29
e 19 30
e 19 32
e 19 34
e 19 35
e 19 36
e 20 28
e 20 29
e 20 30
e 20 31
e 20 33
e 20 35
e 20 36
e 21 25
e 21 29
e 21 30
e 21 32
e 21 34
e 21 36
e 22 25
e 22 26
e 22 30
e 22 31
e 22 33
e 22 35
e 23 25
e 23 26
e 23 27
e 23 31
e 23 32
e 23 34
e 23 36
e 24 25
e 24 26
e 24 27
e 24 28
e 24 31
e 24 32
e 24 33
e 24 35
e 25 33
e 25 34
e 25 35
e 25 36
e 26 34
e 26 35
e 26 36
e 27 31
e 27 35
e 27 36
e 28 31
e 28 32
e 28 36
e 29 31
e 29 32
e 29 33
e 30 31
e 30 32
e 30 33
e 30 34
n 1 19884107
n 2 9942053
n 3 9942053
n 4 9942053
n 5 9942053
n 6 9942053
n 7 9942053
n 8 19884107
n 9 9942053
n 10 9942053
n 11 9942053
n 12 9942053
n 13 9942053
n 14 9942053
n 15 19884107
n 16 9942053
n 17 9942053
n 18 9942053
n 19 9942053
n 20 9942053
n 21 9942053
n 22 19884107
n 23 9942053
n 24 9942053
n 25 9942053
n 26 9942053
n 27 9942053
n 28 9942053
n 29 19884107
n 30 9942053
n 31 9942053
n 32 9942053
n 33 9942053
n 34 9942053
n 35 9942053
n 36 19884107
